Normalized Data/p02_7_normalized_split0.vrp
NAME:p02_7_NORMALIZED_split
BEST_KNOWN: 0
COMMENT: 0
DIMENSION: 295
CAPACITY: 100
EDGE_WEIGHT_FORMAT: FUNCTION
EDGE_WEIGHT_TYPE: EXACT_2D
NODE_COORD_SECTION
1 0.00000 0.00000
2 16 -40
3 16 -40
4 16 -40
5 16 -40
6 16 -40
7 1 -22
8 1 -22
9 1 -22
10 -38 47
11 -38 47
12 -38 47
13 14 20
14 14 20
15 14 20
16 14 20
17 14 20
18 7 49
19 7 49
20 7 49
21 7 49
22 -5 -35
23 -5 -35
24 -5 -35
25 -5 -35
26 24 -2
27 24 -2
28 24 -2
29 24 -2
30 24 -2
31 -26 16
32 -26 16
33 -26 16
34 6 42
35 6 42
36 6 42
37 6 42
38 -34 15
39 -34 15
40 49 9
41 49 9
42 49 9
43 49 9
44 49 9
45 3 -34
46 3 -34
47 3 -34
48 3 -34
49 30 -38
50 30 -38
51 30 -38
52 12 44
53 12 44
54 12 44
55 12 44
56 12 44
57 -12 -48
58 -12 -48
59 -12 -48
60 28 6
61 28 6
62 34 -11
63 34 -11
64 34 -11
65 34 -11
66 34 -11
67 -41 17
68 12 -13
69 12 -13
70 2 33
71 2 33
72 -39 -43
73 -39 -43
74 -39 -43
75 9 3
76 9 3
77 9 3
78 9 3
79 9 3
80 8 15
81 8 15
82 8 15
83 8 15
84 35 -32
85 35 -32
86 35 -32
87 -37 44
88 -37 44
89 -37 44
90 -37 44
91 -37 44
92 -37 44
93 -37 44
94 25 -33
95 25 -33
96 25 -33
97 25 -33
98 49 -45
99 49 -45
100 49 -45
101 26 -30
102 26 -30
103 26 -30
104 26 -30
105 26 -30
106 26 -30
107 26 -30
108 4 -23
109 4 -23
110 4 -23
111 4 -23
112 4 -23
113 4 -23
114 -4 -28
115 -4 -28
116 -4 -28
117 -4 -28
118 -4 -28
119 20 -34
120 20 -34
121 20 -34
122 20 -34
123 20 -34
124 21 -50
125 21 -50
126 21 -50
127 21 -50
128 21 -50
129 21 -50
130 21 -50
131 43 36
132 43 36
133 24 10
134 24 10
135 24 10
136 24 10
137 24 10
138 28 10
139 28 10
140 28 10
141 40 23
142 40 23
143 40 23
144 40 23
145 -4 -16
146 -4 -16
147 -4 -16
148 20 -19
149 20 -19
150 20 -19
151 27 42
152 27 42
153 -25 44
154 -25 44
155 -32 -43
156 -32 -43
157 -32 -43
158 -32 -43
159 -32 -43
160 -32 -43
161 27 -15
162 27 -15
163 27 -15
164 -10 -25
165 -10 -25
166 -10 -25
167 -10 -25
168 -2 42
169 -2 42
170 -25 -32
171 -34 21
172 -34 21
173 -34 21
174 -34 21
175 -34 21
176 -45 21
177 -34 -13
178 -34 -13
179 -34 -13
180 -34 -13
181 -26 -36
182 -26 -36
183 -26 -36
184 -26 -36
185 -20 -32
186 -20 -32
187 -20 -32
188 -23 -42
189 -23 -42
190 -23 -42
191 -23 -42
192 -38 -4
193 -38 -4
194 -38 -4
195 -38 -4
196 13 -25
197 13 -25
198 13 -25
199 13 -25
200 13 -25
201 13 -25
202 13 -25
203 -26 -21
204 -26 -21
205 -26 -21
206 -26 -21
207 21 -7
208 21 -7
209 21 -7
210 21 -7
211 21 -7
212 21 -7
213 21 -7
214 -35 38
215 -35 38
216 -13 36
217 -13 36
218 -13 36
219 -13 27
220 -13 27
221 -13 27
222 -13 27
223 -13 27
224 -13 27
225 -29 34
226 -29 34
227 -29 34
228 -29 34
229 28 30
230 28 30
231 28 30
232 28 30
233 28 30
234 28 30
235 -17 -48
236 -17 -48
237 -17 -48
238 -17 -48
239 49 45
240 49 45
241 49 45
242 49 45
243 49 45
244 28 -37
245 28 -37
246 28 -37
247 28 -37
248 38 -30
249 38 -30
250 38 -30
251 38 -30
252 38 -30
253 -45 -1
254 -45 -1
255 -45 -1
256 -45 -1
257 -45 -1
258 -45 -1
259 2 38
260 2 38
261 2 38
262 2 38
263 2 38
264 2 38
265 42 -3
266 42 -3
267 42 -3
268 42 -3
269 21 31
270 21 31
271 21 31
272 21 31
273 0 30
274 0 30
275 0 30
276 0 30
277 4 -22
278 4 -22
279 -17 6
280 -17 6
281 8 -23
282 8 -23
283 8 -23
284 30 24
285 30 24
286 30 24
287 30 24
288 -32 -48
289 -32 -48
290 -32 -48
291 -32 -48
292 -32 -48
293 45 38
294 45 38
295 45 38
DEMAND_SECTION
1 0
2 10
3 5
4 1
5 1
6 1
7 10
8 1
9 1
10 20
11 20
12 5
13 10
14 1
15 1
16 1
17 1
18 20
19 5
20 1
21 1
22 20
23 5
24 1
25 1
26 20
27 10
28 1
29 1
30 1
31 20
32 1
33 1
34 20
35 20
36 1
37 1
38 20
39 5
40 20
41 1
42 1
43 1
44 1
45 20
46 10
47 1
48 1
49 20
50 5
51 1
52 20
53 10
54 1
55 1
56 1
57 20
58 20
59 5
60 10
61 5
62 20
63 10
64 5
65 1
66 1
67 20
68 10
69 5
70 10
71 5
72 20
73 10
74 1
75 20
76 20
77 1
78 1
79 1
80 10
81 5
82 1
83 1
84 20
85 5
86 1
87 20
88 20
89 5
90 1
91 1
92 1
93 1
94 10
95 5
96 1
97 1
98 20
99 10
100 5
101 20
102 10
103 5
104 1
105 1
106 1
107 1
108 20
109 20
110 1
111 1
112 1
113 1
114 20
115 5
116 1
117 1
118 1
119 20
120 10
121 5
122 1
123 1
124 20
125 20
126 5
127 1
128 1
129 1
130 1
131 10
132 5
133 20
134 10
135 5
136 1
137 1
138 20
139 20
140 10
141 20
142 1
143 1
144 1
145 20
146 1
147 1
148 20
149 10
150 1
151 20
152 5
153 20
154 10
155 20
156 20
157 1
158 1
159 1
160 1
161 20
162 20
163 10
164 20
165 20
166 1
167 1
168 20
169 5
170 20
171 20
172 20
173 5
174 1
175 1
176 20
177 20
178 1
179 1
180 1
181 20
182 5
183 1
184 1
185 10
186 5
187 1
188 20
189 10
190 1
191 1
192 20
193 5
194 1
195 1
196 20
197 20
198 5
199 1
200 1
201 1
202 1
203 20
204 10
205 1
206 1
207 20
208 20
209 5
210 1
211 1
212 1
213 1
214 10
215 5
216 10
217 1
218 1
219 20
220 10
221 5
222 1
223 1
224 1
225 20
226 10
227 5
228 1
229 20
230 10
231 5
232 1
233 1
234 1
235 20
236 20
237 5
238 1
239 20
240 1
241 1
242 1
243 1
244 20
245 20
246 5
247 1
248 10
249 1
250 1
251 1
252 1
253 20
254 5
255 1
256 1
257 1
258 1
259 20
260 20
261 5
262 1
263 1
264 1
265 10
266 5
267 1
268 1
269 20
270 10
271 1
272 1
273 20
274 10
275 1
276 1
277 20
278 5
279 20
280 5
281 10
282 5
283 1
284 20
285 20
286 5
287 1
288 10
289 1
290 1
291 1
292 1
293 20
294 10
295 5
DEPOT_SECTION
1
-1
EOF