Normalized Data/p02_7_normalized_split0.sol
294 -8 7 6 44 47 46 45 21 23 24 22 113 114 115 117 116 -9 10 11 86 90 91 87 89 92 88 214 -14 151 150 238 240 241 239 242 292 294 293 131 130 -29 27 28 25 26 61 64 62 63 65 206 211 -31 30 32 227 224 226 225 213 153 152 216 217 -57 58 56 235 237 234 236 -60 59 264 267 266 265 43 41 40 39 42 142 140 141 143 286 283 -66 175 257 252 256 254 253 255 191 192 193 194 -68 67 122 121 119 118 120 201 200 197 195 196 -71 73 72 289 287 290 291 288 159 154 155 157 158 156 183 181 182 -74 75 76 78 77 -79 34 36 33 35 263 259 258 261 262 260 -80 271 268 270 269 229 231 232 233 228 230 284 285 -82 81 16 15 13 12 55 53 52 51 54 18 19 20 17 167 168 -93 94 96 95 128 123 124 127 126 129 125 5 2 1 4 3 281 280 282 -133 132 135 136 134 139 138 137 -146 145 144 109 111 108 110 107 112 276 277 -147 162 160 161 207 212 208 209 210 -149 148 101 102 103 106 48 50 49 245 246 243 244 -166 165 163 164 205 204 202 203 178 176 177 179 -169 180 190 187 188 189 186 184 185 -171 170 174 172 173 37 38 279 278 -199 198 104 100 105 83 85 84 99 97 98 249 247 250 251 248 -220 218 221 223 222 219 215 70 69 272 273 275 274 0 





OBJ=
2278.305
BEST_KNOWN=
0.000